
  32    1
  10

   0   0   3 2 3 4 
   9   1   4 10 9 8 5 
   4   1   4 11 10 8 6 
   7   2   3 10 8 7 
   8   3   1 6 
   3   1   2 12 7 
   8   3   4 21 18 14 13 
   2   1   4 21 18 14 12 
   6   1   4 21 18 14 12 
   8   2   3 19 18 14 
   8   1   2 21 13 
   1   2   2 19 15 
   9   2   2 19 15 
   2   1   1 15 
   3   3   1 16 
   9   2   2 20 17 
   2   2   4 26 25 23 22 
   5   2   4 27 26 25 22 
   5   1   3 31 26 24 
   2   1   4 31 30 28 27 
   9   2   3 29 28 25 
   2   2   2 31 24 
   5   1   2 28 27 
  10   5   2 30 28 
   1   2   2 31 30 
   1   2   2 29 28 
   3   5   1 29 
   4   2   1 32
  10   2   1 32
   1   3   1 32
  10   2   1 32
   0   0   0 
